# 
# This is the geometry file that corresponds to the current relaxation step.
# If you do not want this file to be written, set the "write_restart_geometry" flag to .false.
#  aims_uuid : 0EBF88A6-791E-4B1C-A242-96F80E08C1DD                                
# 
lattice_vector     -0.06123784     -0.06723777     10.30795479
lattice_vector     16.32583809      0.40675965     -0.66093284
lattice_vector      6.73638916     16.24253273     -6.08529568
atom       7.73638091      8.98435845      5.59098131 C
atom      12.60684045      7.54815229     -2.43662626 C
atom       9.96784242     11.74535258     -0.74529408 C
atom       9.78885183     13.14872343     -1.03357896 C
atom       6.64162678     11.80693052      2.14444024 C
  constrain_relaxation .true.
atom       6.65604311     11.35709754      3.60867339 C
  constrain_relaxation .true.
atom       5.58389156     12.07991412      4.42649244 C
  constrain_relaxation .true.
atom       6.52207728      9.82582157      3.64856710 C
  constrain_relaxation .true.
atom       3.75124616      7.07753450      6.42348783 C
  constrain_relaxation .true.
atom       4.99538713      7.35429617      5.57522840 C
  constrain_relaxation .true.
atom       4.81271939      6.86541990      4.13662482 C
  constrain_relaxation .true.
atom       5.33122363      8.85439758      5.66264710 C
  constrain_relaxation .true.
atom      13.99713156      5.45392969      1.42755174 C
  constrain_relaxation .true.
atom      14.15040426      6.54498140      0.36531161 C
  constrain_relaxation .true.
atom      15.54128824      7.17996122      0.41099048 C
  constrain_relaxation .true.
atom      13.79069346      5.95884821     -1.00750623 C
  constrain_relaxation .true.
atom      16.03386136      6.68664833      5.18767441 C
  constrain_relaxation .true.
atom      14.82618944      6.26787168      6.03080214 C
  constrain_relaxation .true.
atom      14.78869600      4.74991778      6.22428145 C
  constrain_relaxation .true.
atom      14.92356937      7.11485679     -2.94832050 C
  constrain_relaxation .true.
atom      10.34219102      5.14034878      5.02195971 C
atom      10.41708606      4.01351252      5.92654625 C
atom      10.20816386      8.48538070     -3.44996240 Cu
initial_moment 1.0
atom      10.00922677      7.68814209      3.25314048 Cu
initial_moment 0.0
atom      10.49249974      8.84296330      0.24830576 Cu
initial_moment -1.0
atom       9.49080296     13.27819482     -2.07280193 H
atom       9.01508956     13.55771328     -0.38552682 H
atom      10.72098423     13.68383996     -0.85772097 H
atom       5.75022043     13.16541827      4.38894014 H
  constrain_relaxation .true.
atom      20.90211381     12.28454364      3.36694196 H
  constrain_relaxation .true.
atom       5.60253700     11.78166707      5.48441356 H
  constrain_relaxation .true.
atom       5.66847614     11.58923941      1.67589809 H
  constrain_relaxation .true.
atom       7.41640927     11.29068991      1.56038618 H
  constrain_relaxation .true.
atom       7.30908317      9.36803487      3.03254381 H
  constrain_relaxation .true.
atom       7.64119157     11.60800112      4.03425019 H
  constrain_relaxation .true.
atom       5.55888498      9.52328109      3.21497201 H
  constrain_relaxation .true.
atom       6.81689085     12.88897114      2.06726718 H
  constrain_relaxation .true.
atom       4.60577505      5.78581686      4.12869479 H
  constrain_relaxation .true.
atom       3.96484237      7.37249612      3.64790633 H
  constrain_relaxation .true.
atom       5.70887589      7.02859335      3.52260400 H
  constrain_relaxation .true.
atom      19.20310617      8.03180340      5.37527434 H
  constrain_relaxation .true.
atom       3.90129147      7.37581285      7.47088732 H
  constrain_relaxation .true.
atom       5.40461823      9.14805544      6.72075591 H
  constrain_relaxation .true.
atom       5.84345021      6.81128282      6.02229826 H
  constrain_relaxation .true.
atom       4.52890441      9.44843884      5.20303564 H
  constrain_relaxation .true.
atom       3.50499160      6.00656842      6.41267979 H
  constrain_relaxation .true.
atom      15.73291945      7.58762466      1.41374825 H
  constrain_relaxation .true.
atom      16.33069931      6.44472464      0.18386936 H
  constrain_relaxation .true.
atom      15.63621229      8.01522928     -0.29637267 H
  constrain_relaxation .true.
atom      14.70159235      4.62360574      1.25907564 H
  constrain_relaxation .true.
atom      12.97583280      5.04609851      1.43282178 H
  constrain_relaxation .true.
atom      12.80230519      5.48097177     -0.93899765 H
  constrain_relaxation .true.
atom      13.41205018      7.33048416      0.58954123 H
  constrain_relaxation .true.
atom      14.52147975      5.19073940     -1.29924075 H
  constrain_relaxation .true.
atom      14.18333673      5.87156565      2.42628132 H
  constrain_relaxation .true.
atom      14.74627480      4.23944289      5.25175101 H
  constrain_relaxation .true.
atom      15.68667312      4.38046657      6.74307546 H
  constrain_relaxation .true.
atom      13.91155572      4.42851985      6.80293719 H
  constrain_relaxation .true.
atom      16.97948098      6.42728605      5.68812519 H
  constrain_relaxation .true.
atom      16.03102161      7.76834143      4.99185116 H
  constrain_relaxation .true.
atom      15.03249475      8.18831510     -3.16125006 H
  constrain_relaxation .true.
atom      13.91540404      6.58359070      5.49734899 H
  constrain_relaxation .true.
atom      15.79214166      6.80003773     -2.35397374 H
  constrain_relaxation .true.
atom      16.01761495      6.17131894      4.21728340 H
  constrain_relaxation .true.
atom       9.58371200      3.33549794      5.74603514 H
atom      11.35171516      3.47606916      5.77389125 H
atom      10.36915840      4.37098292      6.95578125 H
atom       8.47235798      7.37401940      1.11957247 I
atom      12.04021355      9.14345659      2.37625800 I
atom       6.59314179      9.22421828      4.99717040 N
atom      13.72120683      6.93066047     -2.11562580 N
atom      10.10105133     10.62975829     -0.50396693 N
atom      10.28070617      6.04600139      4.31711598 N
atom       9.32833704      9.27073414      4.92309797 S
atom      11.05468462      7.40173296     -1.63432254 S
atom       7.99817401      8.40667552     -3.12514871 S
atom      12.34699743      8.51042248      6.49677298 S
