lattice_vector  -0.0612378418 -0.0672377720 10.3079547882
lattice_vector  16.3258380890  0.4067596495 -0.6609328389
lattice_vector   6.7363891602 16.2425327301 -6.0852956772
atom_frac  0.888476431  0.249794036  0.554297447 C  
atom_frac  0.076654077  0.584699512  0.455514967 C  
atom_frac  0.383610845  0.313872367  0.714358270 C  
atom_frac  0.398247689  0.262349397  0.800618529 C  
atom_frac  0.644138455  0.109322064  0.726843119 C  
atom_frac  0.770773768  0.122022487  0.699354529 C  
atom_frac  0.872453570  0.037320640  0.746398091 C  
atom_frac  0.720390201  0.152933374  0.604096174 C  
atom_frac  0.885142326  0.052326560  0.438094556 C  
atom_frac  0.816182613  0.122082569  0.453101516 C  
atom_frac  0.658511460  0.123000368  0.422327310 C  
atom_frac  0.878470182  0.104490682  0.546156287 C  
atom_frac  0.373501629  0.727086544  0.319118559 C  
atom_frac  0.309028566  0.708433628  0.386491299 C  
atom_frac  0.340060741  0.778283179  0.423964173 C  
atom_frac  0.153793335  0.700895369  0.349951148 C  
atom_frac  0.788799763  0.822358727  0.394346327 C  
atom_frac  0.852377474  0.758494139  0.370426148 C  
atom_frac  0.817695498  0.795066357  0.275911212 C  
atom_frac  0.009153366  0.741039336  0.419518769 C  
atom_frac  0.703764379  0.509219408  0.321182042 C  
atom_frac  0.768280268  0.545669138  0.258404344 C  
atom_frac  0.008426785  0.411438555  0.520823002 Cu 
initial_moment 1.0
atom_frac  0.619247139  0.415037632  0.476951838 Cu 
initial_moment 0.0
atom_frac  0.368279725  0.427142411  0.532281041 Cu 
initial_moment 0.0
atom_frac  0.299331784  0.237536907  0.805486977 H  
atom_frac  0.476388603  0.204509020  0.828882277 H  
atom_frac  0.432438940  0.303366393  0.837052107 H  
atom_frac  0.907486558  0.019823600  0.813812256 H  
atom_frac  0.823490739  0.980044544  0.735185266 H  
atom_frac  0.964915037  0.046321210  0.728193343 H  
atom_frac  0.587933004  0.054563578  0.714579225 H  
atom_frac  0.571549416  0.170376554  0.693230391 H  
atom_frac  0.646785021  0.213241845  0.574096739 H  
atom_frac  0.824005187  0.176664874  0.713653803 H  
atom_frac  0.664630115  0.100970149  0.586540222 H  
atom_frac  0.675223470  0.092458799  0.794011831 H  
atom_frac  0.619138062  0.137823194  0.355325460 H  
atom_frac  0.626216531  0.057440639  0.455054462 H  
atom_frac  0.607273757  0.174171150  0.430879802 H  
atom_frac  0.864055336  0.984136641  0.473423302 H  
atom_frac  0.997961938  0.054189563  0.456878960 H  
atom_frac  0.991934240  0.101729542  0.564774692 H  
atom_frac  0.843163490  0.188565314  0.418116719 H  
atom_frac  0.852204144  0.039530762  0.584247530 H  
atom_frac  0.845672429  0.064494491  0.371690542 H  
atom_frac  0.452512771  0.779911458  0.449487418 H  
atom_frac  0.294529915  0.845920324  0.376815736 H  
atom_frac  0.300928742  0.762636960  0.475618750 H  
atom_frac  0.330070436  0.791911066  0.266195029 H  
atom_frac  0.356544733  0.674309790  0.295261204 H  
atom_frac  0.140624344  0.651961327  0.321700782 H  
atom_frac  0.356202275  0.642669618  0.436694354 H  
atom_frac  0.100642659  0.765732169  0.300817460 H  
atom_frac  0.485895991  0.728122890  0.345270365 H  
atom_frac  0.705024362  0.805311620  0.243759945 H  
atom_frac  0.857909083  0.860210538  0.251700372 H  
atom_frac  0.859987199  0.749115527  0.257449597 H  
atom_frac  0.831246853  0.887630343  0.376919359 H  
atom_frac  0.807787418  0.794456184  0.461720020 H  
atom_frac  0.026529789  0.720262229  0.486200362 H  
atom_frac  0.808809221  0.693929553  0.391300470 H  
atom_frac  0.058546562  0.802980185  0.398789674 H  
atom_frac  0.676246107  0.834348857  0.361852974 H  
atom_frac  0.737820923  0.512483120  0.215011865 H  
atom_frac  0.737367511  0.617885053  0.223023966 H  
atom_frac  0.881483495  0.534580648  0.289004564 H  
atom_frac  0.391702414  0.332853049  0.447262168 I  
atom_frac  0.590030134  0.519404352  0.551173031 I  
atom_frac  0.831002951  0.172505111  0.567545891 N  
atom_frac  0.081745490  0.671722591  0.410925478 N  
atom_frac  0.372640252  0.355288416  0.645013928 N  
atom_frac  0.655173779  0.479203582  0.373198688 N  
atom_frac  0.832037985  0.337018460  0.572219074 S  
atom_frac  0.146315277  0.497985423  0.441839576 S  
atom_frac  0.026928425  0.273200214  0.519544482 S  
atom_frac  0.990732193  0.547968626  0.525822937 S  
