lattice_vector   0.0593604147  0.0951186568 10.3061332703
lattice_vector  12.6431398392  0.6253322363 -0.0945208669
lattice_vector   2.6809451580 19.0940761566 -7.8260488510
atom_frac  0.411765873  0.266646951  0.511749387 Br 
atom_frac  0.555099130  0.543475747  0.536838889 Br 
atom_frac  0.928615153  0.214980960  0.618356228 C  
atom_frac  0.037666917  0.584670424  0.465725183 C  
atom_frac  0.382506758  0.386427909  0.708337724 C  
atom_frac  0.380623609  0.357360214  0.778302670 C  
atom_frac  0.608360529  0.123519443  0.723990381 C  
atom_frac  0.754785717  0.139863402  0.722678125 C  
atom_frac  0.867262423  0.074921124  0.788496912 C  
atom_frac  0.755196512  0.112037912  0.653764725 C  
atom_frac  0.076696515  0.870404899  0.626639664 C  
atom_frac  0.963013887  0.962911129  0.599724293 C  
atom_frac  0.817249298  0.922253847  0.568698525 C  
atom_frac  0.980009139  0.021997349  0.660658360 C  
atom_frac  0.321646273  0.680504262  0.339328080 C  
atom_frac  0.255725116  0.699711740  0.391675293 C  
atom_frac  0.263994694  0.816592038  0.401907325 C  
atom_frac  0.106304333  0.662579834  0.366784722 C  
atom_frac  0.705284894  0.862945378  0.354237437 C  
atom_frac  0.784771621  0.758032262  0.358762771 C  
atom_frac  0.756401837  0.734198213  0.285401314 C  
atom_frac  0.941168785  0.765574455  0.401473910 C  
atom_frac  0.737416506  0.325601816  0.404019475 C  
atom_frac  0.829049706  0.290985137  0.372003764 C  
atom_frac  0.006789327  0.405543804  0.556094587 Cu 
initial_moment 1.0
atom_frac  0.617135525  0.367874920  0.511696875 Cu 
initial_moment 0.0
atom_frac  0.366939098  0.430960566  0.554829538 Cu 
initial_moment 0.0
atom_frac  0.276086777  0.333816707  0.775029004 H  
atom_frac  0.457209349  0.289256245  0.809411526 H  
atom_frac  0.407892585  0.424765229  0.806535363 H  
atom_frac  0.860772133  0.096650302  0.836098373 H  
atom_frac  0.852923214  0.988147795  0.791837156 H  
atom_frac  0.973471105  0.088850923  0.789940894 H  
atom_frac  0.584749281  0.038472511  0.724700272 H  
atom_frac  0.527379394  0.172117203  0.677623034 H  
atom_frac  0.674244344  0.163754210  0.608890533 H  
atom_frac  0.773430705  0.225881755  0.721017718 H  
atom_frac  0.727791190  0.028454050  0.651815355 H  
atom_frac  0.602068186  0.144918904  0.771707118 H  
atom_frac  0.811922252  0.877177775  0.527362525 H  
atom_frac  0.792099535  0.866643548  0.608900845 H  
atom_frac  0.734992921  0.988123357  0.545383096 H  
atom_frac  0.065508723  0.812529743  0.670194983 H  
atom_frac  0.181893826  0.899923801  0.645622551 H  
atom_frac  0.088798761  0.043792859  0.682557523 H  
atom_frac  0.982010484  0.020607371  0.558303297 H  
atom_frac  0.958897769  0.967867374  0.702649415 H  
atom_frac  0.069857836  0.825540960  0.585031450 H  
atom_frac  0.373403192  0.837639511  0.419612586 H  
atom_frac  0.205395982  0.873025537  0.352579862 H  
atom_frac  0.224013358  0.830411255  0.442147851 H  
atom_frac  0.266256720  0.730348945  0.286863506 H  
atom_frac  0.320657462  0.595622420  0.333968759 H  
atom_frac  0.110269658  0.578578889  0.360011578 H  
atom_frac  0.316166252  0.647668660  0.442522645 H  
atom_frac  0.042521250  0.711766243  0.315482885 H  
atom_frac  0.431363970  0.700563669  0.357815474 H  
atom_frac  0.643777072  0.728966296  0.257421494 H  
atom_frac  0.791556239  0.798007488  0.253344089 H  
atom_frac  0.808580577  0.657349527  0.287542701 H  
atom_frac  0.739963949  0.932118535  0.325841784 H  
atom_frac  0.720556021  0.879013479  0.406629741 H  
atom_frac  0.953003645  0.784351945  0.452869505 H  
atom_frac  0.748165369  0.692018986  0.388594747 H  
atom_frac  0.982246101  0.831432462  0.374106109 H  
atom_frac  0.592418313  0.859227419  0.326152980 H  
atom_frac  0.853909075  0.203665689  0.388533711 H  
atom_frac  0.779770374  0.310528070  0.314362228 H  
atom_frac  0.927381098  0.331241280  0.389400184 H  
atom_frac  0.888845086  0.120764330  0.642853200 N  
atom_frac  0.030974399  0.667712867  0.414254904 N  
atom_frac  0.382894725  0.408284038  0.651671588 N  
atom_frac  0.668121815  0.352890134  0.432351410 N  
atom_frac  0.835373461  0.338309169  0.602265418 S  
atom_frac  0.131520316  0.461564332  0.480134934 S  
atom_frac  0.078767300  0.227706164  0.599809706 S  
atom_frac  0.946396410  0.586318672  0.520222366 S  
